\ Model Multi-Period Capacitated Facility Location Problem with SLAs
\ LP format - for model browsing. Use MPS format to capture full model detail.
Minimize
  50729.56424965902 y[0] + 29385.12372447936 y[1] + 27307.25522420601 y[2]
   + 56.65202249604948 x[0,0,0] + 56.65202249604948 x[0,0,1]
   + 84.11106176104649 x[0,1,0] + 84.11106176104649 x[0,1,1]
   + 63.23345548406036 x[0,2,0] + 63.23345548406036 x[0,2,1]
   + 87.30898313076695 x[0,3,0] + 87.30898313076695 x[0,3,1]
   + 25.04629774974199 x[1,0,0] + 25.04629774974199 x[1,0,1]
   + 11.99914151156318 x[1,1,0] + 11.99914151156318 x[1,1,1]
   + 29.51938670789912 x[1,2,0] + 29.51938670789912 x[1,2,1]
   + 64.93275998217561 x[1,3,0] + 64.93275998217561 x[1,3,1]
   + 62.30396956103183 x[2,0,0] + 62.30396956103183 x[2,0,1]
   + 18.9427261716116 x[2,1,0] + 18.9427261716116 x[2,1,1]
   + 74.18355299708458 x[2,2,0] + 74.18355299708458 x[2,2,1]
   + 18.17684688243091 x[2,3,0] + 18.17684688243091 x[2,3,1]
Subject To
 demand_0_period_0: x[0,0,0] + x[1,0,0] + x[2,0,0] >= 1
 demand_0_period_1: x[0,0,1] + x[1,0,1] + x[2,0,1] >= 1
 demand_1_period_0: x[0,1,0] + x[1,1,0] + x[2,1,0] >= 1
 demand_1_period_1: x[0,1,1] + x[1,1,1] + x[2,1,1] >= 1
 demand_2_period_0: x[0,2,0] + x[1,2,0] + x[2,2,0] >= 1
 demand_2_period_1: x[0,2,1] + x[1,2,1] + x[2,2,1] >= 1
 demand_3_period_0: x[0,3,0] + x[1,3,0] + x[2,3,0] >= 1
 demand_3_period_1: x[0,3,1] + x[1,3,1] + x[2,3,1] >= 1
 capacity_0_period_0: - 1e+06 y[0] + x[0,0,0] + x[0,1,0] + x[0,2,0]
   + x[0,3,0] <= 0
 capacity_0_period_1: - 1e+06 y[0] + x[0,0,1] + x[0,1,1] + x[0,2,1]
   + x[0,3,1] <= 0
 capacity_1_period_0: - 1e+06 y[1] + x[1,0,0] + x[1,1,0] + x[1,2,0]
   + x[1,3,0] <= 0
 capacity_1_period_1: - 1e+06 y[1] + x[1,0,1] + x[1,1,1] + x[1,2,1]
   + x[1,3,1] <= 0
 capacity_2_period_0: - 1e+06 y[2] + x[2,0,0] + x[2,1,0] + x[2,2,0]
   + x[2,3,0] <= 0
 capacity_2_period_1: - 1e+06 y[2] + x[2,0,1] + x[2,1,1] + x[2,2,1]
   + x[2,3,1] <= 0
Bounds
Binaries
 y[0] y[1] y[2]
End
